# Solution for model sdp
# Objective value = 36.5
x[7.75,6.25] 1
x[7.75,6.75] 0
x[7.75,7.25] 3
x[7.75,7.75] 5
x[7.75,8.25] 2
x[7.75,8.75] 0
x[7.75,9.25] 18
x[7.75,10.5] 0
x[9.0,5.0] 0
x[9.0,5.5] 0
x[9.0,6.0] 0
x[9.0,6.5] 0
x[9.0,7.0] 0
x[9.0,7.5] 0
x[9.0,8.0] 0
x[9.0,9.25] 4
x[31.75,7.75] 5
x[31.75,8.25] 6
x[31.75,8.75] 0
x[31.75,9.25] 18
x[31.75,10.5] 0
x[33.0,6.5] 0
x[33.0,7.0] 0
x[33.0,7.5] 0
x[33.0,8.0] 0
x[33.0,9.25] 4
x[55.75,6.25] 2
x[55.75,6.75] 0
x[55.75,7.25] 4
x[55.75,7.75] 0
x[55.75,8.25] 6
x[55.75,8.75] 0
x[55.75,9.25] 13
x[55.75,10.5] 0
x[57.0,5.0] 0
x[57.0,5.5] 0
x[57.0,6.0] 0
x[57.0,6.5] 0
x[57.0,7.0] 0
x[57.0,7.5] 0
x[57.0,8.0] 0
x[57.0,9.25] 3
x[79.75,6.25] 2
x[79.75,6.75] 0
x[79.75,7.25] 4
x[79.75,7.75] 0
x[79.75,8.25] 5
x[79.75,8.75] 0
x[79.75,9.25] 13
x[79.75,10.5] 0
x[81.0,5.0] 0
x[81.0,5.5] 0
x[81.0,6.0] 0
x[81.0,6.5] 0
x[81.0,7.0] 0
x[81.0,7.5] 1
x[81.0,8.0] 0
x[81.0,9.25] 2
x[103.75,6.25] 1
x[103.75,6.75] 0
x[103.75,7.25] 4
x[103.75,7.75] 0
x[103.75,8.25] 8
x[103.75,8.75] 0
x[103.75,9.25] 10
x[103.75,10.5] 0
x[105.0,5.0] 0
x[105.0,5.5] 0
x[105.0,6.0] 0
x[105.0,6.5] 0
x[105.0,7.0] 0
x[105.0,7.5] 0
x[105.0,8.0] 0
x[105.0,9.25] 2
x[127.75,6.25] 1
x[127.75,6.75] 0
x[127.75,7.25] 4
x[127.75,7.75] 0
x[127.75,8.25] 8
x[127.75,8.75] 0
x[127.75,9.25] 10
x[127.75,10.5] 0
x[129.0,5.0] 0
x[129.0,5.5] 0
x[129.0,6.0] 0
x[129.0,6.5] 0
x[129.0,7.0] 0
x[129.0,7.5] 0
x[129.0,8.0] 0
x[129.0,9.25] 2
x[151.75,6.25] 1
x[151.75,6.75] 0
x[151.75,7.25] 4
x[151.75,7.75] 0
x[151.75,8.25] 8
x[151.75,8.75] 0
x[151.75,9.25] 10
x[151.75,10.5] 0
x[153.0,5.0] 0
x[153.0,5.5] 0
x[153.0,6.0] 0
x[153.0,6.5] 0
x[153.0,7.0] 0
x[153.0,7.5] 0
x[153.0,8.0] 0
x[153.0,9.25] 2
y[7.75,6.25] 1
y[7.75,6.75] 0
y[7.75,7.25] 1
y[7.75,7.75] 1
y[7.75,8.25] 1
y[7.75,8.75] 0
y[7.75,9.25] 1
y[7.75,10.5] 0
y[9.0,5.0] 0
y[9.0,5.5] 0
y[9.0,6.0] 0
y[9.0,6.5] 0
y[9.0,7.0] 0
y[9.0,7.5] 0
y[9.0,8.0] 0
y[9.0,9.25] 1
y[31.75,7.75] 1
y[31.75,8.25] 1
y[31.75,8.75] 0
y[31.75,9.25] 1
y[31.75,10.5] 0
y[33.0,6.5] 0
y[33.0,7.0] 0
y[33.0,7.5] 0
y[33.0,8.0] 0
y[33.0,9.25] 1
y[55.75,6.25] 1
y[55.75,6.75] 0
y[55.75,7.25] 1
y[55.75,7.75] 0
y[55.75,8.25] 1
y[55.75,8.75] 0
y[55.75,9.25] 1
y[55.75,10.5] 0
y[57.0,5.0] 0
y[57.0,5.5] 0
y[57.0,6.0] 0
y[57.0,6.5] 0
y[57.0,7.0] 0
y[57.0,7.5] 0
y[57.0,8.0] 0
y[57.0,9.25] 1
y[79.75,6.25] 1
y[79.75,6.75] 0
y[79.75,7.25] 1
y[79.75,7.75] 0
y[79.75,8.25] 1
y[79.75,8.75] 0
y[79.75,9.25] 1
y[79.75,10.5] 0
y[81.0,5.0] 0
y[81.0,5.5] 0
y[81.0,6.0] 0
y[81.0,6.5] 0
y[81.0,7.0] 0
y[81.0,7.5] 1
y[81.0,8.0] 0
y[81.0,9.25] 1
y[103.75,6.25] 1
y[103.75,6.75] 0
y[103.75,7.25] 1
y[103.75,7.75] 0
y[103.75,8.25] 1
y[103.75,8.75] 0
y[103.75,9.25] 1
y[103.75,10.5] 0
y[105.0,5.0] 0
y[105.0,5.5] 0
y[105.0,6.0] 0
y[105.0,6.5] 0
y[105.0,7.0] 0
y[105.0,7.5] 0
y[105.0,8.0] 0
y[105.0,9.25] 1
y[127.75,6.25] 1
y[127.75,6.75] 0
y[127.75,7.25] 1
y[127.75,7.75] 0
y[127.75,8.25] 1
y[127.75,8.75] 0
y[127.75,9.25] 1
y[127.75,10.5] 0
y[129.0,5.0] 0
y[129.0,5.5] 0
y[129.0,6.0] 0
y[129.0,6.5] 0
y[129.0,7.0] 0
y[129.0,7.5] 0
y[129.0,8.0] 0
y[129.0,9.25] 1
y[151.75,6.25] 1
y[151.75,6.75] 0
y[151.75,7.25] 1
y[151.75,7.75] 0
y[151.75,8.25] 1
y[151.75,8.75] 0
y[151.75,9.25] 1
y[151.75,10.5] 0
y[153.0,5.0] 0
y[153.0,5.5] 0
y[153.0,6.0] 0
y[153.0,6.5] 0
y[153.0,7.0] 0
y[153.0,7.5] 0
y[153.0,8.0] 0
y[153.0,9.25] 1
mu[7.75] 4
mu[8.0] 4
mu[8.25] 4
mu[8.5] 4
mu[8.75] 4
mu[9.0] 4
mu[9.25] 4
mu[9.5] 4
mu[9.75] 4
mu[10.0] 4
mu[10.25] 4
mu[10.5] 4
mu[10.75] 4
mu[11.0] 4
mu[11.25] 4
mu[11.5] 4
mu[11.75] 4
mu[12.0] 4
mu[12.25] 4
mu[12.5] 4
mu[12.75] 4
mu[13.0] 4
mu[13.25] 4
mu[13.5] 4
mu[13.75] 4
mu[14.0] 4
mu[14.25] 4
mu[14.5] 4
mu[14.75] 4
mu[15.0] 4
mu[15.25] 4
mu[15.5] 4
mu[15.75] 4
mu[16.0] 4
mu[16.25] 4
mu[16.5] 4
mu[16.75] 4
mu[17.0] 0
mu[17.25] 0
mu[17.5] 0
mu[17.75] 0
mu[18.0] 0
mu[31.75] 4
mu[32.0] 4
mu[32.25] 4
mu[32.5] 4
mu[32.75] 4
mu[33.0] 4
mu[33.25] 4
mu[33.5] 4
mu[33.75] 4
mu[34.0] 4
mu[34.25] 4
mu[34.5] 4
mu[34.75] 4
mu[35.0] 4
mu[35.25] 4
mu[35.5] 4
mu[35.75] 4
mu[36.0] 4
mu[36.25] 4
mu[36.5] 4
mu[36.75] 4
mu[37.0] 4
mu[37.25] 4
mu[37.5] 4
mu[37.75] 4
mu[38.0] 4
mu[38.25] 4
mu[38.5] 4
mu[38.75] 4
mu[39.0] 4
mu[39.25] 4
mu[39.5] 4
mu[39.75] 4
mu[40.0] 4
mu[40.25] 4
mu[40.5] 4
mu[40.75] 4
mu[41.0] 0
mu[41.25] 0
mu[41.5] 0
mu[41.75] 0
mu[42.0] 0
mu[55.75] 4
mu[56.0] 4
mu[56.25] 4
mu[56.5] 4
mu[56.75] 4
mu[57.0] 4
mu[57.25] 4
mu[57.5] 4
mu[57.75] 4
mu[58.0] 4
mu[58.25] 4
mu[58.5] 4
mu[58.75] 4
mu[59.0] 4
mu[59.25] 4
mu[59.5] 4
mu[59.75] 4
mu[60.0] 4
mu[60.25] 4
mu[60.5] 4
mu[60.75] 4
mu[61.0] 4
mu[61.25] 4
mu[61.5] 4
mu[61.75] 4
mu[62.0] 4
mu[62.25] 4
mu[62.5] 4
mu[62.75] 4
mu[63.0] 4
mu[63.25] 4
mu[63.5] 4
mu[63.75] 4
mu[64.0] 4
mu[64.25] 4
mu[64.5] 5
mu[64.75] 5
mu[65.0] 0
mu[65.25] 0
mu[65.5] 0
mu[65.75] 0
mu[66.0] 0
mu[79.75] 4
mu[80.0] 4
mu[80.25] 4
mu[80.5] 4
mu[80.75] 4
mu[81.0] 4
mu[81.25] 4
mu[81.5] 4
mu[81.75] 4
mu[82.0] 4
mu[82.25] 4
mu[82.5] 4
mu[82.75] 4
mu[83.0] 4
mu[83.25] 4
mu[83.5] 4
mu[83.75] 4
mu[84.0] 4
mu[84.25] 4
mu[84.5] 4
mu[84.75] 4
mu[85.0] 4
mu[85.25] 4
mu[85.5] 4
mu[85.75] 4
mu[86.0] 4
mu[86.25] 4
mu[86.5] 4
mu[86.75] 4
mu[87.0] 4
mu[87.25] 4
mu[87.5] 4
mu[87.75] 4
mu[88.0] 4
mu[88.25] 4
mu[88.5] 4
mu[88.75] 4
mu[89.0] 0
mu[89.25] 0
mu[89.5] 0
mu[89.75] 0
mu[90.0] 0
mu[103.75] 4
mu[104.0] 4
mu[104.25] 4
mu[104.5] 4
mu[104.75] 4
mu[105.0] 4
mu[105.25] 4
mu[105.5] 4
mu[105.75] 4
mu[106.0] 4
mu[106.25] 4
mu[106.5] 4
mu[106.75] 4
mu[107.0] 4
mu[107.25] 4
mu[107.5] 4
mu[107.75] 4
mu[108.0] 4
mu[108.25] 4
mu[108.5] 4
mu[108.75] 4
mu[109.0] 4
mu[109.25] 4
mu[109.5] 4
mu[109.75] 4
mu[110.0] 4
mu[110.25] 4
mu[110.5] 4
mu[110.75] 4
mu[111.0] 4
mu[111.25] 4
mu[111.5] 4
mu[111.75] 4
mu[112.0] 4
mu[112.25] 4
mu[112.5] 4
mu[112.75] 4
mu[113.0] 0
mu[113.25] 0
mu[113.5] 0
mu[113.75] 0
mu[114.0] 0
mu[127.75] 4
mu[128.0] 4
mu[128.25] 4
mu[128.5] 4
mu[128.75] 4
mu[129.0] 4
mu[129.25] 4
mu[129.5] 4
mu[129.75] 4
mu[130.0] 4
mu[130.25] 4
mu[130.5] 4
mu[130.75] 4
mu[131.0] 4
mu[131.25] 4
mu[131.5] 4
mu[131.75] 4
mu[132.0] 4
mu[132.25] 4
mu[132.5] 4
mu[132.75] 4
mu[133.0] 4
mu[133.25] 4
mu[133.5] 4
mu[133.75] 4
mu[134.0] 4
mu[134.25] 4
mu[134.5] 4
mu[134.75] 4
mu[135.0] 4
mu[135.25] 4
mu[135.5] 4
mu[135.75] 4
mu[136.0] 4
mu[136.25] 4
mu[136.5] 4
mu[136.75] 4
mu[137.0] 0
mu[137.25] 0
mu[137.5] 0
mu[137.75] 0
mu[138.0] 0
mu[151.75] 4
mu[152.0] 4
mu[152.25] 4
mu[152.5] 4
mu[152.75] 4
mu[153.0] 4
mu[153.25] 4
mu[153.5] 4
mu[153.75] 4
mu[154.0] 4
mu[154.25] 4
mu[154.5] 4
mu[154.75] 4
mu[155.0] 4
mu[155.25] 4
mu[155.5] 4
mu[155.75] 4
mu[156.0] 4
mu[156.25] 4
mu[156.5] 4
mu[156.75] 4
mu[157.0] 4
mu[157.25] 4
mu[157.5] 4
mu[157.75] 4
mu[158.0] 4
mu[158.25] 4
mu[158.5] 4
mu[158.75] 4
mu[159.0] 4
mu[159.25] 4
mu[159.5] 4
mu[159.75] 4
mu[160.0] 4
mu[160.25] 4
mu[160.5] 4
mu[160.75] 4
mu[161.0] 0
mu[161.25] 0
mu[161.5] 0
mu[161.75] 0
mu[162.0] 0
delta_plus[0,7.75] 0
delta_plus[0,8.0] 0
delta_plus[0,8.25] 0
delta_plus[0,8.5] 0
delta_plus[0,8.75] 0
delta_plus[0,9.0] 0
delta_plus[0,9.25] 0
delta_plus[0,9.5] 0
delta_plus[0,9.75] 0
delta_plus[0,10.0] 0
delta_plus[0,10.25] 0
delta_plus[0,10.5] 0
delta_plus[0,10.75] 0
delta_plus[0,11.0] 0
delta_plus[0,11.25] 0
delta_plus[0,11.5] 0
delta_plus[0,11.75] 0
delta_plus[0,12.0] 0
delta_plus[0,12.25] 0
delta_plus[0,12.5] 0
delta_plus[0,12.75] 0
delta_plus[0,13.0] 0
delta_plus[0,13.25] 0
delta_plus[0,13.5] 0
delta_plus[0,13.75] 0
delta_plus[0,14.0] 0
delta_plus[0,14.25] 0
delta_plus[0,14.5] 0
delta_plus[0,14.75] 0
delta_plus[0,15.0] 0
delta_plus[0,15.25] 0
delta_plus[0,15.5] 0
delta_plus[0,15.75] 0
delta_plus[0,16.0] 0
delta_plus[0,16.25] 0
delta_plus[0,16.5] 0
delta_plus[0,16.75] 0
delta_plus[0,17.0] 0
delta_plus[0,17.25] 0
delta_plus[0,17.5] 0
delta_plus[0,17.75] 0
delta_plus[0,18.0] 0
delta_plus[0,31.75] 0
delta_plus[0,32.0] 0
delta_plus[0,32.25] 0
delta_plus[0,32.5] 0
delta_plus[0,32.75] 0
delta_plus[0,33.0] 0
delta_plus[0,33.25] 0
delta_plus[0,33.5] 0
delta_plus[0,33.75] 0
delta_plus[0,34.0] 0
delta_plus[0,34.25] 0
delta_plus[0,34.5] 0
delta_plus[0,34.75] 0
delta_plus[0,35.0] 0
delta_plus[0,35.25] 0
delta_plus[0,35.5] 0
delta_plus[0,35.75] 0
delta_plus[0,36.0] 0
delta_plus[0,36.25] 0
delta_plus[0,36.5] 0
delta_plus[0,36.75] 0
delta_plus[0,37.0] 0
delta_plus[0,37.25] 0
delta_plus[0,37.5] 0
delta_plus[0,37.75] 0
delta_plus[0,38.0] 0
delta_plus[0,38.25] 0
delta_plus[0,38.5] 0
delta_plus[0,38.75] 0
delta_plus[0,39.0] 0
delta_plus[0,39.25] 0
delta_plus[0,39.5] 0
delta_plus[0,39.75] 0
delta_plus[0,40.0] 0
delta_plus[0,40.25] 0
delta_plus[0,40.5] 0
delta_plus[0,40.75] 0
delta_plus[0,41.0] 0
delta_plus[0,41.25] 0
delta_plus[0,41.5] 0
delta_plus[0,41.75] 0
delta_plus[0,42.0] 0
delta_plus[0,55.75] 0
delta_plus[0,56.0] 0
delta_plus[0,56.25] 0
delta_plus[0,56.5] 0
delta_plus[0,56.75] 0
delta_plus[0,57.0] 0
delta_plus[0,57.25] 0
delta_plus[0,57.5] 0
delta_plus[0,57.75] 0
delta_plus[0,58.0] 0
delta_plus[0,58.25] 0
delta_plus[0,58.5] 0
delta_plus[0,58.75] 0
delta_plus[0,59.0] 0
delta_plus[0,59.25] 0
delta_plus[0,59.5] 0
delta_plus[0,59.75] 0
delta_plus[0,60.0] 0
delta_plus[0,60.25] 0
delta_plus[0,60.5] 0
delta_plus[0,60.75] 0
delta_plus[0,61.0] 0
delta_plus[0,61.25] 0
delta_plus[0,61.5] 0
delta_plus[0,61.75] 0
delta_plus[0,62.0] 0
delta_plus[0,62.25] 0
delta_plus[0,62.5] 0
delta_plus[0,62.75] 0
delta_plus[0,63.0] 0
delta_plus[0,63.25] 0
delta_plus[0,63.5] 0
delta_plus[0,63.75] 0
delta_plus[0,64.0] 0
delta_plus[0,64.25] 0
delta_plus[0,64.5] 1
delta_plus[0,64.75] 1
delta_plus[0,65.0] 0
delta_plus[0,65.25] 0
delta_plus[0,65.5] 0
delta_plus[0,65.75] 0
delta_plus[0,66.0] 0
delta_plus[0,79.75] 0
delta_plus[0,80.0] 0
delta_plus[0,80.25] 0
delta_plus[0,80.5] 0
delta_plus[0,80.75] 0
delta_plus[0,81.0] 0
delta_plus[0,81.25] 0
delta_plus[0,81.5] 0
delta_plus[0,81.75] 0
delta_plus[0,82.0] 0
delta_plus[0,82.25] 0
delta_plus[0,82.5] 0
delta_plus[0,82.75] 0
delta_plus[0,83.0] 0
delta_plus[0,83.25] 0
delta_plus[0,83.5] 0
delta_plus[0,83.75] 0
delta_plus[0,84.0] 0
delta_plus[0,84.25] 0
delta_plus[0,84.5] 0
delta_plus[0,84.75] 0
delta_plus[0,85.0] 0
delta_plus[0,85.25] 0
delta_plus[0,85.5] 0
delta_plus[0,85.75] 0
delta_plus[0,86.0] 0
delta_plus[0,86.25] 0
delta_plus[0,86.5] 0
delta_plus[0,86.75] 0
delta_plus[0,87.0] 0
delta_plus[0,87.25] 0
delta_plus[0,87.5] 0
delta_plus[0,87.75] 0
delta_plus[0,88.0] 0
delta_plus[0,88.25] 0
delta_plus[0,88.5] 0
delta_plus[0,88.75] 0
delta_plus[0,89.0] 0
delta_plus[0,89.25] 0
delta_plus[0,89.5] 0
delta_plus[0,89.75] 0
delta_plus[0,90.0] 0
delta_plus[0,103.75] 0
delta_plus[0,104.0] 0
delta_plus[0,104.25] 0
delta_plus[0,104.5] 0
delta_plus[0,104.75] 0
delta_plus[0,105.0] 0
delta_plus[0,105.25] 0
delta_plus[0,105.5] 0
delta_plus[0,105.75] 0
delta_plus[0,106.0] 0
delta_plus[0,106.25] 0
delta_plus[0,106.5] 0
delta_plus[0,106.75] 0
delta_plus[0,107.0] 0
delta_plus[0,107.25] 0
delta_plus[0,107.5] 0
delta_plus[0,107.75] 0
delta_plus[0,108.0] 0
delta_plus[0,108.25] 0
delta_plus[0,108.5] 0
delta_plus[0,108.75] 0
delta_plus[0,109.0] 0
delta_plus[0,109.25] 0
delta_plus[0,109.5] 0
delta_plus[0,109.75] 0
delta_plus[0,110.0] 0
delta_plus[0,110.25] 0
delta_plus[0,110.5] 0
delta_plus[0,110.75] 0
delta_plus[0,111.0] 0
delta_plus[0,111.25] 0
delta_plus[0,111.5] 0
delta_plus[0,111.75] 0
delta_plus[0,112.0] 0
delta_plus[0,112.25] 0
delta_plus[0,112.5] 0
delta_plus[0,112.75] 0
delta_plus[0,113.0] 0
delta_plus[0,113.25] 0
delta_plus[0,113.5] 0
delta_plus[0,113.75] 0
delta_plus[0,114.0] 0
delta_plus[0,127.75] 0
delta_plus[0,128.0] 0
delta_plus[0,128.25] 0
delta_plus[0,128.5] 0
delta_plus[0,128.75] 0
delta_plus[0,129.0] 0
delta_plus[0,129.25] 0
delta_plus[0,129.5] 0
delta_plus[0,129.75] 0
delta_plus[0,130.0] 0
delta_plus[0,130.25] 0
delta_plus[0,130.5] 0
delta_plus[0,130.75] 0
delta_plus[0,131.0] 0
delta_plus[0,131.25] 0
delta_plus[0,131.5] 0
delta_plus[0,131.75] 0
delta_plus[0,132.0] 0
delta_plus[0,132.25] 0
delta_plus[0,132.5] 0
delta_plus[0,132.75] 0
delta_plus[0,133.0] 0
delta_plus[0,133.25] 0
delta_plus[0,133.5] 0
delta_plus[0,133.75] 0
delta_plus[0,134.0] 0
delta_plus[0,134.25] 0
delta_plus[0,134.5] 0
delta_plus[0,134.75] 0
delta_plus[0,135.0] 0
delta_plus[0,135.25] 0
delta_plus[0,135.5] 0
delta_plus[0,135.75] 0
delta_plus[0,136.0] 0
delta_plus[0,136.25] 0
delta_plus[0,136.5] 0
delta_plus[0,136.75] 0
delta_plus[0,137.0] 0
delta_plus[0,137.25] 0
delta_plus[0,137.5] 0
delta_plus[0,137.75] 0
delta_plus[0,138.0] 0
delta_plus[0,151.75] 0
delta_plus[0,152.0] 0
delta_plus[0,152.25] 0
delta_plus[0,152.5] 0
delta_plus[0,152.75] 0
delta_plus[0,153.0] 0
delta_plus[0,153.25] 0
delta_plus[0,153.5] 0
delta_plus[0,153.75] 0
delta_plus[0,154.0] 0
delta_plus[0,154.25] 0
delta_plus[0,154.5] 0
delta_plus[0,154.75] 0
delta_plus[0,155.0] 0
delta_plus[0,155.25] 0
delta_plus[0,155.5] 0
delta_plus[0,155.75] 0
delta_plus[0,156.0] 0
delta_plus[0,156.25] 0
delta_plus[0,156.5] 0
delta_plus[0,156.75] 0
delta_plus[0,157.0] 0
delta_plus[0,157.25] 0
delta_plus[0,157.5] 0
delta_plus[0,157.75] 0
delta_plus[0,158.0] 0
delta_plus[0,158.25] 0
delta_plus[0,158.5] 0
delta_plus[0,158.75] 0
delta_plus[0,159.0] 0
delta_plus[0,159.25] 0
delta_plus[0,159.5] 0
delta_plus[0,159.75] 0
delta_plus[0,160.0] 0
delta_plus[0,160.25] 0
delta_plus[0,160.5] 0
delta_plus[0,160.75] 0
delta_plus[0,161.0] 0
delta_plus[0,161.25] 0
delta_plus[0,161.5] 0
delta_plus[0,161.75] 0
delta_plus[0,162.0] 0
delta_minus[0,7.75] 0
delta_minus[0,8.0] 0
delta_minus[0,8.25] 0
delta_minus[0,8.5] 0
delta_minus[0,8.75] 0
delta_minus[0,9.0] 0
delta_minus[0,9.25] 0
delta_minus[0,9.5] 0
delta_minus[0,9.75] 0
delta_minus[0,10.0] 0
delta_minus[0,10.25] 0
delta_minus[0,10.5] 0
delta_minus[0,10.75] 0
delta_minus[0,11.0] 0
delta_minus[0,11.25] 0
delta_minus[0,11.5] 0
delta_minus[0,11.75] 0
delta_minus[0,12.0] 0
delta_minus[0,12.25] 0
delta_minus[0,12.5] 0
delta_minus[0,12.75] 0
delta_minus[0,13.0] 0
delta_minus[0,13.25] 0
delta_minus[0,13.5] 0
delta_minus[0,13.75] 0
delta_minus[0,14.0] 0
delta_minus[0,14.25] 0
delta_minus[0,14.5] 0
delta_minus[0,14.75] 0
delta_minus[0,15.0] 0
delta_minus[0,15.25] 0
delta_minus[0,15.5] 0
delta_minus[0,15.75] 0
delta_minus[0,16.0] 0
delta_minus[0,16.25] 0
delta_minus[0,16.5] 0
delta_minus[0,16.75] 0
delta_minus[0,17.0] 0
delta_minus[0,17.25] 0
delta_minus[0,17.5] 0
delta_minus[0,17.75] 0
delta_minus[0,18.0] 0
delta_minus[0,31.75] 0
delta_minus[0,32.0] 0
delta_minus[0,32.25] 0
delta_minus[0,32.5] 0
delta_minus[0,32.75] 0
delta_minus[0,33.0] 0
delta_minus[0,33.25] 0
delta_minus[0,33.5] 0
delta_minus[0,33.75] 0
delta_minus[0,34.0] 0
delta_minus[0,34.25] 0
delta_minus[0,34.5] 0
delta_minus[0,34.75] 0
delta_minus[0,35.0] 0
delta_minus[0,35.25] 0
delta_minus[0,35.5] 0
delta_minus[0,35.75] 0
delta_minus[0,36.0] 0
delta_minus[0,36.25] 0
delta_minus[0,36.5] 0
delta_minus[0,36.75] 0
delta_minus[0,37.0] 0
delta_minus[0,37.25] 0
delta_minus[0,37.5] 0
delta_minus[0,37.75] 0
delta_minus[0,38.0] 0
delta_minus[0,38.25] 0
delta_minus[0,38.5] 0
delta_minus[0,38.75] 0
delta_minus[0,39.0] 0
delta_minus[0,39.25] 0
delta_minus[0,39.5] 0
delta_minus[0,39.75] 0
delta_minus[0,40.0] 0
delta_minus[0,40.25] 0
delta_minus[0,40.5] 0
delta_minus[0,40.75] 0
delta_minus[0,41.0] 0
delta_minus[0,41.25] 0
delta_minus[0,41.5] 0
delta_minus[0,41.75] 0
delta_minus[0,42.0] 0
delta_minus[0,55.75] 0
delta_minus[0,56.0] 0
delta_minus[0,56.25] 0
delta_minus[0,56.5] 0
delta_minus[0,56.75] 0
delta_minus[0,57.0] 0
delta_minus[0,57.25] 0
delta_minus[0,57.5] 0
delta_minus[0,57.75] 0
delta_minus[0,58.0] 0
delta_minus[0,58.25] 0
delta_minus[0,58.5] 0
delta_minus[0,58.75] 0
delta_minus[0,59.0] 0
delta_minus[0,59.25] 0
delta_minus[0,59.5] 0
delta_minus[0,59.75] 0
delta_minus[0,60.0] 0
delta_minus[0,60.25] 0
delta_minus[0,60.5] 0
delta_minus[0,60.75] 0
delta_minus[0,61.0] 0
delta_minus[0,61.25] 0
delta_minus[0,61.5] 0
delta_minus[0,61.75] 0
delta_minus[0,62.0] 0
delta_minus[0,62.25] 0
delta_minus[0,62.5] 0
delta_minus[0,62.75] 0
delta_minus[0,63.0] 0
delta_minus[0,63.25] 0
delta_minus[0,63.5] 0
delta_minus[0,63.75] 0
delta_minus[0,64.0] 0
delta_minus[0,64.25] 0
delta_minus[0,64.5] 0
delta_minus[0,64.75] 0
delta_minus[0,65.0] 0
delta_minus[0,65.25] 0
delta_minus[0,65.5] 0
delta_minus[0,65.75] 0
delta_minus[0,66.0] 0
delta_minus[0,79.75] 0
delta_minus[0,80.0] 0
delta_minus[0,80.25] 0
delta_minus[0,80.5] 0
delta_minus[0,80.75] 0
delta_minus[0,81.0] 0
delta_minus[0,81.25] 0
delta_minus[0,81.5] 0
delta_minus[0,81.75] 0
delta_minus[0,82.0] 0
delta_minus[0,82.25] 0
delta_minus[0,82.5] 0
delta_minus[0,82.75] 0
delta_minus[0,83.0] 0
delta_minus[0,83.25] 0
delta_minus[0,83.5] 0
delta_minus[0,83.75] 0
delta_minus[0,84.0] 0
delta_minus[0,84.25] 0
delta_minus[0,84.5] 0
delta_minus[0,84.75] 0
delta_minus[0,85.0] 0
delta_minus[0,85.25] 0
delta_minus[0,85.5] 0
delta_minus[0,85.75] 0
delta_minus[0,86.0] 0
delta_minus[0,86.25] 0
delta_minus[0,86.5] 0
delta_minus[0,86.75] 0
delta_minus[0,87.0] 0
delta_minus[0,87.25] 0
delta_minus[0,87.5] 0
delta_minus[0,87.75] 0
delta_minus[0,88.0] 0
delta_minus[0,88.25] 0
delta_minus[0,88.5] 0
delta_minus[0,88.75] 0
delta_minus[0,89.0] 0
delta_minus[0,89.25] 0
delta_minus[0,89.5] 0
delta_minus[0,89.75] 0
delta_minus[0,90.0] 0
delta_minus[0,103.75] 0
delta_minus[0,104.0] 0
delta_minus[0,104.25] 0
delta_minus[0,104.5] 0
delta_minus[0,104.75] 0
delta_minus[0,105.0] 0
delta_minus[0,105.25] 0
delta_minus[0,105.5] 0
delta_minus[0,105.75] 0
delta_minus[0,106.0] 0
delta_minus[0,106.25] 0
delta_minus[0,106.5] 0
delta_minus[0,106.75] 0
delta_minus[0,107.0] 0
delta_minus[0,107.25] 0
delta_minus[0,107.5] 0
delta_minus[0,107.75] 0
delta_minus[0,108.0] 0
delta_minus[0,108.25] 0
delta_minus[0,108.5] 0
delta_minus[0,108.75] 0
delta_minus[0,109.0] 0
delta_minus[0,109.25] 0
delta_minus[0,109.5] 0
delta_minus[0,109.75] 0
delta_minus[0,110.0] 0
delta_minus[0,110.25] 0
delta_minus[0,110.5] 0
delta_minus[0,110.75] 0
delta_minus[0,111.0] 0
delta_minus[0,111.25] 0
delta_minus[0,111.5] 0
delta_minus[0,111.75] 0
delta_minus[0,112.0] 0
delta_minus[0,112.25] 0
delta_minus[0,112.5] 0
delta_minus[0,112.75] 0
delta_minus[0,113.0] 0
delta_minus[0,113.25] 0
delta_minus[0,113.5] 0
delta_minus[0,113.75] 0
delta_minus[0,114.0] 0
delta_minus[0,127.75] 0
delta_minus[0,128.0] 0
delta_minus[0,128.25] 0
delta_minus[0,128.5] 0
delta_minus[0,128.75] 0
delta_minus[0,129.0] 0
delta_minus[0,129.25] 0
delta_minus[0,129.5] 0
delta_minus[0,129.75] 0
delta_minus[0,130.0] 0
delta_minus[0,130.25] 0
delta_minus[0,130.5] 0
delta_minus[0,130.75] 0
delta_minus[0,131.0] 0
delta_minus[0,131.25] 0
delta_minus[0,131.5] 0
delta_minus[0,131.75] 0
delta_minus[0,132.0] 0
delta_minus[0,132.25] 0
delta_minus[0,132.5] 0
delta_minus[0,132.75] 0
delta_minus[0,133.0] 0
delta_minus[0,133.25] 0
delta_minus[0,133.5] 0
delta_minus[0,133.75] 0
delta_minus[0,134.0] 0
delta_minus[0,134.25] 0
delta_minus[0,134.5] 0
delta_minus[0,134.75] 0
delta_minus[0,135.0] 0
delta_minus[0,135.25] 0
delta_minus[0,135.5] 0
delta_minus[0,135.75] 0
delta_minus[0,136.0] 0
delta_minus[0,136.25] 0
delta_minus[0,136.5] 0
delta_minus[0,136.75] 0
delta_minus[0,137.0] 0
delta_minus[0,137.25] 0
delta_minus[0,137.5] 0
delta_minus[0,137.75] 0
delta_minus[0,138.0] 0
delta_minus[0,151.75] 0
delta_minus[0,152.0] 0
delta_minus[0,152.25] 0
delta_minus[0,152.5] 0
delta_minus[0,152.75] 0
delta_minus[0,153.0] 0
delta_minus[0,153.25] 0
delta_minus[0,153.5] 0
delta_minus[0,153.75] 0
delta_minus[0,154.0] 0
delta_minus[0,154.25] 0
delta_minus[0,154.5] 0
delta_minus[0,154.75] 0
delta_minus[0,155.0] 0
delta_minus[0,155.25] 0
delta_minus[0,155.5] 0
delta_minus[0,155.75] 0
delta_minus[0,156.0] 0
delta_minus[0,156.25] 0
delta_minus[0,156.5] 0
delta_minus[0,156.75] 0
delta_minus[0,157.0] 0
delta_minus[0,157.25] 0
delta_minus[0,157.5] 0
delta_minus[0,157.75] 0
delta_minus[0,158.0] 0
delta_minus[0,158.25] 0
delta_minus[0,158.5] 0
delta_minus[0,158.75] 0
delta_minus[0,159.0] 0
delta_minus[0,159.25] 0
delta_minus[0,159.5] 0
delta_minus[0,159.75] 0
delta_minus[0,160.0] 0
delta_minus[0,160.25] 0
delta_minus[0,160.5] 0
delta_minus[0,160.75] 0
delta_minus[0,161.0] 0
delta_minus[0,161.25] 0
delta_minus[0,161.5] 0
delta_minus[0,161.75] 0
delta_minus[0,162.0] 0
rho_short[9.0,5.0] 0
rho_short[9.0,5.5] 0
rho_short[57.0,5.0] 0
rho_short[57.0,5.5] 0
rho_short[81.0,5.0] 0
rho_short[81.0,5.5] 0
rho_short[105.0,5.0] 0
rho_short[105.0,5.5] 0
rho_short[129.0,5.0] 0
rho_short[129.0,5.5] 0
rho_short[153.0,5.0] 0
rho_short[153.0,5.5] 0
